400
120 120
1 84 308
2 84 641
3 84 651
4 84 936
5 83 448
6 83 125
7 83 945
8 83 836
9 83 815
10 83 835
11 83 600
12 83 320
13 82 389
14 82 519
15 81 521
16 81 344
17 81 19
18 81 350
19 81 796
20 81 535
21 80 218
22 80 487
23 80 534
24 80 265
25 80 693
26 79 865
27 79 998
28 79 387
29 79 760
30 79 703
31 78 442
32 78 695
33 78 971
34 78 183
35 78 511
36 78 431
37 78 819
38 77 161
39 77 921
40 77 38
41 77 852
42 77 549
43 76 254
44 76 807
45 76 349
46 76 100
47 76 514
48 76 773
49 76 556
50 75 859
51 75 690
52 75 255
53 74 356
54 74 996
55 73 652
56 72 361
57 72 525
58 71 675
59 71 85
60 71 572
61 71 912
62 71 196
63 71 62
64 71 597
65 70 579
66 70 320
67 70 603
68 70 174
69 70 779
70 70 765
71 70 720
72 69 77
73 69 800
74 69 810
75 69 646
76 69 451
77 69 152
78 68 74
79 68 726
80 68 210
81 68 793
82 67 615
83 67 25
84 67 10
85 66 445
86 66 291
87 65 149
88 65 245
89 65 770
90 65 126
91 65 695
92 64 60
93 64 581
94 64 661
95 64 405
96 64 871
97 64 124
98 63 993
99 63 192
100 63 768
101 63 473
102 63 877
103 63 760
104 63 219
105 63 433
106 63 558
107 63 172
108 62 540
109 62 963
110 62 763
111 62 843
112 62 266
113 62 752
114 61 14
115 61 210
116 61 136
117 61 15
118 61 901
119 61 181
120 61 716
121 61 491
122 60 589
123 60 720
124 60 819
125 60 112
126 60 255
127 59 221
128 59 539
129 58 29
130 58 305
131 57 997
132 57 936
133 57 395
134 57 355
135 57 33
136 57 179
137 56 40
138 56 590
139 56 779
140 56 882
141 56 724
142 55 428
143 55 206
144 55 293
145 55 569
146 55 514
147 55 450
148 55 836
149 55 250
150 54 584
151 54 496
152 54 180
153 54 230
154 54 351
155 54 288
156 54 464
157 54 181
158 54 779
159 53 214
160 53 248
161 53 264
162 52 738
163 52 254
164 52 150
165 52 73
166 52 495
167 52 703
168 52 390
169 52 251
170 52 107
171 52 216
172 51 332
173 50 511
174 50 541
175 50 857
176 50 437
177 49 97
178 49 409
179 48 614
180 48 420
181 48 237
182 48 655
183 48 396
184 48 719
185 47 105
186 47 810
187 47 390
188 47 882
189 47 441
190 47 535
191 46 17
192 46 545
193 46 279
194 46 633
195 46 783
196 46 968
197 46 23
198 45 346
199 45 607
200 45 946
201 45 448
202 45 337
203 45 897
204 45 991
205 45 215
206 45 196
207 44 900
208 44 944
209 44 470
210 43 87
211 43 229
212 43 810
213 43 174
214 43 590
215 43 105
216 43 510
217 43 705
218 43 528
219 43 221
220 42 342
221 42 890
222 42 364
223 42 619
224 41 35
225 41 882
226 41 664
227 41 26
228 41 60
229 40 110
230 40 956
231 40 570
232 40 445
233 40 54
234 40 558
235 39 761
236 39 635
237 39 778
238 39 671
239 39 145
240 39 114
241 38 834
242 38 747
243 38 914
244 38 313
245 38 210
246 38 761
247 38 157
248 37 998
249 37 980
250 37 213
251 37 68
252 36 869
253 36 854
254 36 839
255 36 790
256 36 769
257 36 119
258 36 929
259 36 914
260 36 903
261 35 199
262 35 122
263 35 806
264 34 445
265 34 253
266 34 891
267 34 11
268 34 524
269 34 462
270 33 508
271 33 79
272 33 866
273 32 453
274 32 347
275 32 209
276 32 94
277 32 163
278 32 430
279 32 593
280 32 284
281 32 658
282 32 160
283 31 898
284 31 513
285 31 924
286 31 812
287 31 13
288 31 550
289 31 213
290 30 603
291 30 348
292 30 892
293 29 602
294 29 285
295 29 440
296 29 311
297 29 339
298 29 572
299 29 679
300 29 875
301 29 510
302 29 416
303 29 848
304 29 51
305 28 685
306 28 871
307 28 939
308 28 6
309 28 710
310 28 606
311 27 526
312 27 116
313 27 979
314 27 574
315 27 45
316 27 757
317 27 515
318 26 813
319 26 463
320 26 289
321 26 34
322 26 166
323 26 549
324 26 316
325 26 709
326 26 965
327 25 763
328 25 11
329 25 475
330 25 830
331 25 859
332 24 205
333 24 483
334 24 430
335 24 912
336 24 411
337 24 48
338 24 152
339 24 703
340 24 86
341 23 271
342 23 215
343 23 826
344 23 276
345 23 459
346 22 64
347 22 452
348 22 431
349 21 858
350 21 787
351 21 527
352 21 766
353 21 675
354 21 910
355 21 520
356 20 395
357 20 405
358 20 570
359 20 318
360 20 410
361 19 794
362 19 174
363 19 116
364 19 618
365 19 510
366 19 758
367 19 599
368 19 503
369 18 853
370 18 29
371 18 36
372 18 27
373 18 689
374 17 776
375 16 359
376 16 28
377 16 471
378 16 154
379 16 161
380 16 136
381 16 819
382 16 389
383 15 571
384 15 85
385 15 240
386 15 540
387 14 406
388 14 157
389 14 808
390 14 973
391 14 780
392 14 659
393 13 238
394 13 68
395 13 807
396 12 78
397 12 218
398 12 596
399 12 158
400 12 568
